presolving:
(round 1, fast)       101 del vars, 0 del conss, 0 add conss, 0 chg bounds, 0 chg sides, 0 chg coeffs, 0 upgd conss, 0 impls, 200 clqs
(round 2, exhaustive) 101 del vars, 0 del conss, 0 add conss, 0 chg bounds, 0 chg sides, 0 chg coeffs, 200 upgd conss, 0 impls, 200 clqs
   (1.0s) probing: 51/9900 (0.5%) - 0 fixings, 0 aggregations, 0 implications, 0 bound changes
   (1.0s) probing aborted: 50/50 successive totally useless probings
   Deactivated symmetry handling methods, since SCIP was built without symmetry detector (SYM=none).
presolving (3 rounds: 3 fast, 2 medium, 2 exhaustive):
 101 deleted vars, 0 deleted constraints, 0 added constraints, 0 tightened bounds, 0 added holes, 0 changed sides, 0 changed coefficients
 0 implications, 200 cliques
presolved problem has 9999 variables (9900 bin, 0 int, 0 impl, 99 cont) and 9902 constraints
    200 constraints of type <setppc>
   9702 constraints of type <linear>
Presolving Time: 1.00

 time | node  | left  |LP iter|LP it/n|mem/heur|mdpt |vars |cons |rows |cuts |sepa|confs|strbr|  dualbound   | primalbound  |  gap   | compl. 
p 1.0s|     1 |     0 |   122 |     - | vbounds|   0 |9999 |9909 |9902 |   0 |  0 |   6 |   0 | 0.000000e+00 | 1.708801e+05 |    Inf | unknown
  1.0s|     1 |     0 |   420 |     - |   126M |   0 |9999 |9909 |9902 |   0 |  0 |   6 |   0 | 1.658856e+04 | 1.708801e+05 | 930.11%| unknown
  1.0s|     1 |     0 |   536 |     - |   130M |   0 |9999 |9909 |9974 |  72 |  1 |   6 |   0 | 1.818296e+04 | 1.708801e+05 | 839.78%| unknown
  2.0s|     1 |     0 |   625 |     - |   132M |   0 |9999 |9909 |  10k| 115 |  2 |   6 |   0 | 1.874510e+04 | 1.708801e+05 | 811.60%| unknown
  2.0s|     1 |     0 |   682 |     - |   134M |   0 |9999 |9909 |  10k| 124 |  3 |   6 |   0 | 1.930061e+04 | 1.708801e+05 | 785.36%| unknown
  2.0s|     1 |     0 |   735 |     - |   135M |   0 |9999 |9909 |  10k| 150 |  4 |   6 |   0 | 1.958161e+04 | 1.708801e+05 | 772.66%| unknown
  2.0s|     1 |     0 |   764 |     - |   137M |   0 |9999 |9909 |  10k| 165 |  5 |   6 |   0 | 1.958161e+04 | 1.708801e+05 | 772.66%| unknown
  2.0s|     1 |     0 |   784 |     - |   138M |   0 |9999 |9909 |  10k| 171 |  6 |   6 |   0 | 1.958460e+04 | 1.708801e+05 | 772.52%| unknown
  3.0s|     1 |     0 |   822 |     - |   140M |   0 |9999 |9909 |  10k| 188 |  7 |   6 |   0 | 1.963336e+04 | 1.708801e+05 | 770.36%| unknown
  3.0s|     1 |     0 |   843 |     - |   142M |   0 |9999 |9909 |  10k| 199 |  8 |   6 |   0 | 1.964003e+04 | 1.708801e+05 | 770.06%| unknown
  3.0s|     1 |     0 |   852 |     - |   143M |   0 |9999 |9909 |  10k| 205 |  9 |   6 |   0 | 1.964003e+04 | 1.708801e+05 | 770.06%| unknown
  3.0s|     1 |     0 |   888 |     - |   145M |   0 |9999 |9909 |  10k| 214 | 10 |   6 |   0 | 1.968447e+04 | 1.708801e+05 | 768.10%| unknown
  3.0s|     1 |     0 |   922 |     - |   146M |   0 |9999 |9909 |  10k| 232 | 11 |   6 |   0 | 1.969808e+04 | 1.708801e+05 | 767.50%| unknown
  4.0s|     1 |     0 |   969 |     - |   147M |   0 |9999 |9909 |  10k| 245 | 12 |   6 |   0 | 1.978394e+04 | 1.708801e+05 | 763.73%| unknown
  4.0s|     1 |     0 |   995 |     - |   148M |   0 |9999 |9909 |  10k| 262 | 13 |   6 |   0 | 1.979181e+04 | 1.708801e+05 | 763.39%| unknown
 time | node  | left  |LP iter|LP it/n|mem/heur|mdpt |vars |cons |rows |cuts |sepa|confs|strbr|  dualbound   | primalbound  |  gap   | compl. 
  4.0s|     1 |     0 |  1023 |     - |   149M |   0 |9999 |9909 |  10k| 275 | 14 |   6 |   0 | 1.982298e+04 | 1.708801e+05 | 762.03%| unknown
  4.0s|     1 |     0 |  1033 |     - |   150M |   0 |9999 |9909 |  10k| 282 | 15 |   6 |   0 | 1.982785e+04 | 1.708801e+05 | 761.82%| unknown
  5.0s|     1 |     0 |  1050 |     - |   151M |   0 |9999 |9909 |  10k| 291 | 16 |   6 |   0 | 1.982857e+04 | 1.708801e+05 | 761.79%| unknown
  5.0s|     1 |     0 |  1059 |     - |   152M |   0 |9999 |9909 |  10k| 296 | 17 |   6 |   0 | 1.982872e+04 | 1.708801e+05 | 761.78%| unknown
  5.0s|     1 |     0 |  1079 |     - |   152M |   0 |9999 |9909 |  10k| 303 | 18 |   6 |   0 | 1.983518e+04 | 1.708801e+05 | 761.50%| unknown
  5.0s|     1 |     0 |  1105 |     - |   153M |   0 |9999 |9909 |  10k| 317 | 19 |   6 |   0 | 1.986799e+04 | 1.708801e+05 | 760.08%| unknown
  5.0s|     1 |     0 |  1132 |     - |   154M |   0 |9999 |9909 |  10k| 329 | 20 |   6 |   0 | 1.986834e+04 | 1.708801e+05 | 760.06%| unknown
  6.0s|     1 |     0 |  1139 |     - |   154M |   0 |9999 |9909 |  10k| 336 | 21 |   6 |   0 | 1.986834e+04 | 1.708801e+05 | 760.06%| unknown
  6.0s|     1 |     0 |  1141 |     - |   154M |   0 |9999 |9909 |  10k| 338 | 22 |   6 |   0 | 1.986834e+04 | 1.708801e+05 | 760.06%| unknown
  6.0s|     1 |     0 |  1156 |     - |   154M |   0 |9999 |9909 |  10k| 349 | 23 |   6 |   0 | 1.986834e+04 | 1.708801e+05 | 760.06%| unknown
  6.0s|     1 |     0 |  1162 |     - |   154M |   0 |9999 |9909 |  10k| 355 | 24 |   6 |   0 | 1.986834e+04 | 1.708801e+05 | 760.06%| unknown
  6.0s|     1 |     0 |  1189 |     - |   154M |   0 |9999 |9909 |  10k| 366 | 25 |   6 |   0 | 1.987909e+04 | 1.708801e+05 | 759.60%| unknown
  7.0s|     1 |     0 |  1208 |     - |   154M |   0 |9999 |9909 |  10k| 374 | 26 |   6 |   0 | 1.987977e+04 | 1.708801e+05 | 759.57%| unknown
  7.0s|     1 |     0 |  1215 |     - |   154M |   0 |9999 |9909 |  10k| 382 | 27 |   6 |   0 | 1.987977e+04 | 1.708801e+05 | 759.57%| unknown
  7.0s|     1 |     0 |  1216 |     - |   154M |   0 |9999 |9909 |  10k| 383 | 28 |   6 |   0 | 1.987977e+04 | 1.708801e+05 | 759.57%| unknown
 time | node  | left  |LP iter|LP it/n|mem/heur|mdpt |vars |cons |rows |cuts |sepa|confs|strbr|  dualbound   | primalbound  |  gap   | compl. 
  7.0s|     1 |     0 |  1217 |     - |   154M |   0 |9999 |9909 |  10k| 384 | 29 |   6 |   0 | 1.987977e+04 | 1.708801e+05 | 759.57%| unknown
  7.0s|     1 |     0 |  1221 |     - |   154M |   0 |9999 |9909 |  10k| 388 | 30 |   6 |   0 | 1.987977e+04 | 1.708801e+05 | 759.57%| unknown
 22.0s|     1 |     2 |  5667 |     - |   156M |   0 |9999 |9912 |  10k| 388 | 32 |   9 |  35 | 1.992395e+04 | 1.708801e+05 | 757.66%| unknown
L 217s|    55 |    56 |  9897 | 162.9 |    alns|  21 |9999 |9944 |  10k| 761 |  2 |  42 | 901 | 1.997669e+04 | 1.153562e+05 | 477.45%| unknown
  335s|   100 |    99 | 13086 | 121.1 |   190M |  22 |9999 |9964 |  10k| 963 |  1 |  62 |1477 | 1.997669e+04 | 1.153562e+05 | 477.45%| unknown
o 340s|   104 |   103 | 15283 | 137.7 |rootsold|  22 |9999 |9964 |  10k| 972 |  1 |  62 |1488 | 1.997669e+04 | 3.598766e+04 |  80.15%| unknown
d 387s|   149 |   148 | 19602 | 125.0 |adaptive|  23 |9999 |9970 |  10k|   0 |  1 |  68 |1720 | 1.997669e+04 | 3.252329e+04 |  62.81%| unknown
  420s|   200 |   197 | 24342 | 116.8 |   216M |  23 |9999 |9983 |  10k|1411 |  1 |  82 |1841 | 1.997669e+04 | 3.252329e+04 |  62.81%| unknown
  472s|   300 |   293 | 29550 |  95.2 |   225M |  33 |9999 |  10k|  10k|1618 |  1 | 116 |2027 | 1.997669e+04 | 3.252329e+04 |  62.81%| unknown
L 546s|   368 |   357 | 41653 | 110.5 |    rins|  37 |9999 |  10k|  10k|1666 |  1 | 144 |2144 | 1.997669e+04 | 3.147130e+04 |  57.54%| unknown
  557s|   400 |   387 | 43984 | 107.5 |   226M |  37 |9999 |  10k|  10k|1681 |  1 | 145 |2165 | 1.997669e+04 | 3.147130e+04 |  57.54%| unknown
d 579s|   481 |   468 | 47025 |  95.7 |linesear|  40 |9999 |  10k|  10k|   0 |  3 | 166 |2230 | 1.997669e+04 | 2.996871e+04 |  50.02%| unknown
  587s|   500 |   487 | 47375 |  92.7 |   233M |  40 |9999 |  10k|  10k|1758 |  1 | 166 |2256 | 1.997669e+04 | 2.996871e+04 |  50.02%| unknown

SCIP Status        : solving was interrupted [time limit reached]
Solving Time (sec) : 600.00
Solving Nodes      : 543
Primal Bound       : +2.99687140635187e+04 (7 solutions)
Dual Bound         : +1.99766936464828e+04
Gap                : 50.02 %
Trying to solve problem with MTZ Solver Method...
Starting Solver, time limit setted to 10 minutes
Route:  [[0, 75], [1, 34], [2, 4], [3, 39], [4, 61], [5, 82], [6, 73], [7, 65], [8, 19], [9, 46], [10, 88], [11, 27], [12, 40], [13, 32], [14, 68], [15, 62], [16, 89], [17, 84], [18, 91], [19, 86], [20, 11], [21, 57], [22, 41], [23, 87], [24, 8], [25, 94], [26, 23], [27, 81], [28, 35], [29, 99], [30, 44], [31, 96], [32, 98], [33, 37], [34, 50], [35, 66], [36, 18], [37, 22], [38, 72], [39, 2], [40, 51], [41, 21], [42, 92], [43, 3], [44, 85], [45, 7], [46, 20], [47, 29], [48, 69], [49, 0], [50, 36], [51, 45], [52, 59], [53, 90], [54, 24], [55, 9], [56, 30], [57, 28], [58, 5], [59, 43], [60, 48], [61, 47], [62, 53], [63, 58], [64, 67], [65, 80], [66, 74], [67, 13], [68, 83], [69, 97], [70, 38], [71, 56], [72, 14], [73, 60], [74, 6], [75, 79], [76, 42], [77, 64], [78, 12], [79, 77], [80, 33], [81, 17], [82, 70], [83, 26], [84, 63], [85, 95], [86, 25], [87, 78], [88, 93], [89, 10], [90, 76], [91, 54], [92, 52], [93, 49], [94, 55], [95, 15], [96, 16], [97, 31], [98, 71], [99, 1]]
An Otimal Solution was found, yay!
Objective value: 29968.7
Problem solved in 50394 iterations
Problem solved in 543 nodes
Final Route Configuration succesfully created at:
data/routes/kroD100.csv
